000 000 000 000 000 000 000 000 000 002 001 000 000 000 000 000 000 000 000 000 000 000 -99 000 000 000 000 -99 -99 -99 000
000 000 -99 000 000 000 000 000 000 001 000 001 000 001 001 000 000 000 000 000 000 000 000 000 000 000 000 -99 -99 -99 000
000 000 000 000 000 000 000 000 000 000 000 001 001 003 005 000 000 001 000 000 000 000 000 -99 000 000 000 000 000 -99 -99
000 000 000 000 000 000 000 000 000 000 000 000 002 002 007 000 000 001 000 001 000 001 001 000 000 000 000 000 -99 -99 -99
000 000 000 000 000 000 000 000 000 000 -99 000 000 001 001 001 000 000 000 001 000 004 005 001 000 000 000 -99 -99 -99 -99
000 000 000 000 000 000 000 000 000 000 -99 -99 000 000 000 000 000 000 000 000 001 007 008 005 000 000 000 -99 -99 -99 -99
000 000 000 000 000 000 000 000 000 000 -99 -99 -99 000 000 000 000 -99 000 000 002 005 007 012 000 000 -99 -99 -99 -99 -99
000 000 000 000 000 000 000 000 000 000 000 -99 -99 -99 -99 000 000 000 -99 000 001 002 004 007 000 000 -99 -99 -99 000 000
000 000 000 000 000 -99 000 -99 000 000 000 000 -99 -99 -99 -99 000 000 000 000 001 002 000 004 000 000 -99 000 000 000 000
000 000 000 000 000 000 000 000 000 000 000 000 -99 -99 -99 -99 000 000 000 -99 000 001 000 000 000 000 000 000 000 000 000
000 000 -99 000 000 000 000 000 000 000 000 000 000 -99 -99 000 000 000 000 000 000 001 000 000 000 000 000 000 000 000 000
000 000 000 000 000 000 000 000 000 000 000 000 000 -99 -99 000 000 000 000 000 -99 -99 -99 000 000 000 000 000 000 000 000
000 000 000 000 000 000 000 000 000 -99 000 000 000 -99 -99 000 000 000 000 000 -99 -99 -99 000 000 000 000 000 000 000 000
000 000 000 000 000 000 000 000 000 -99 -99 000 000 -99 -99 -99 000 000 000 -99 -99 -99 -99 000 000 000 000 000 000 000 000
000 000 000 000 000 000 000 000 000 -99 -99 -99 -99 000 -99 000 000 -99 -99 -99 -99 -99 -99 000 000 000 000 000 000 000 000
000 -99 000 000 000 000 -99 000 000 -99 -99 -99 -99 -99 000 000 000 000 000 -99 -99 -99 000 000 000 -99 -99 000 000 000 000
000 -99 -99 -99 000 000 -99 000 000 -99 -99 -99 -99 000 000 000 000 000 000 -99 -99 -99 -99 000 000 000 -99 000 000 000 000
000 000 000 -99 -99 000 000 000 000 000 -99 -99 -99 000 000 000 000 000 -99 -99 -99 -99 -99 -99 000 000 -99 000 000 000 000
000 000 000 000 -99 -99 000 000 000 000 -99 -99 -99 -99 -99 000 000 000 -99 -99 -99 -99 -99 000 000 -99 -99 000 000 000 -99
000 000 000 000 000 000 -99 000 000 -99 -99 -99 -99 -99 -99 -99 000 000 -99 -99 -99 -99 -99 000 000 -99 -99 000 000 000 -99
000 000 000 000 000 000 -99 000 000 -99 -99 -99 -99 -99 -99 000 000 000 000 000 000 000 000 -99 -99 -99 -99 -99 -99 -99 -99
000 000 000 000 000 000 000 000 000 000 -99 -99 -99 -99 -99 000 000 000 000 000 000 000 000 -99 -99 -99 -99 -99 -99 -99 -99
000 000 000 000 000 000 000 000 000 000 -99 -99 -99 -99 -99 000 000 000 000 000 000 000 000 -99 -99 -99 -99 -99 -99 -99 -99
000 000 000 000 000 000 000 000 000 000 -99 -99 -99 000 000 000 000 000 000 000 000 000 000 -99 -99 -99 -99 -99 -99 -99 -99
000 000 000 000 000 000 000 000 000 000 000 -99 -99 000 000 000 000 000 000 000 000 000 000 -99 -99 -99 -99 -99 -99 -99 -99
000 000 000 000 000 000 000 000 000 000 -99 -99 -99 -99 000 000 000 000 000 000 -99 -99 000 -99 -99 -99 -99 -99 -99 000 000
000 -99 000 000 000 000 000 000 000 000 -99 -99 -99 -99 -99 -99 000 000 000 -99 -99 000 -99 -99 -99 -99 -99 -99 -99 000 000
000 000 000 -99 000 000 000 000 000 000 -99 -99 -99 -99 -99 000 -99 000 -99 -99 -99 000 -99 -99 -99 -99 -99 -99 -99 -99 -99
000 000 000 -99 000 000 000 000 000 000 -99 -99 -99 -99 000 000 000 000 000 -99 000 000 -99 -99 -99 -99 -99 -99 -99 -99 -99
000 000 000 -99 000 000 000 000 000 000 -99 -99 -99 000 000 000 000 000 000 000 000 000 -99 -99 -99 000 -99 -99 -99 -99 -99
-99 000 000 -99 000 000 000 000 000 000 000 -99 -99 000 000 000 000 000 000 000 000 000 -99 000 000 000 -99 -99 -99 -99 -99
000 000 000 000 000 000 000 000 000 -99 -99 -99 -99 000 000 000 000 000 000 -99 000 000 000 000 000 000 -99 -99 -99 -99 -99
000 000 000 000 000 000 000 000 000 000 -99 -99 -99 000 000 -99 000 000 000 -99 000 000 000 000 000 000 -99 -99 000 000 -99
000 000 000 000 000 000 000 000 000 000 -99 -99 -99 000 000 000 000 000 000 -99 000 000 000 000 -99 000 000 000 000 000 000
000 000 000 000 000 000 000 000 000 000 -99 -99 000 000 000 000 000 000 -99 000 000 000 000 000 000 000 000 000 000 000 000
-99 000 000 000 000 000 000 -99 000 000 -99 000 000 000 000 000 000 000 000 000 000 000 000 000 000 000 000 000 000 000 000
000 000 -99 000 000 000 000 -99 000 000 -99 -99 000 000 000 000 000 000 000 000 000 000 -99 -99 000 000 000 000 000 000 000
000 -99 -99 -99 000 000 -99 -99 000 000 -99 -99 000 000 000 000 000 000 000 -99 000 -99 000 000 000 000 000 -99 000 000 000
000 -99 -99 -99 000 000 -99 -99 -99 000 -99 -99 -99 000 000 000 000 000 -99 -99 000 -99 000 000 000 000 000 -99 -99 -99 -99
000 -99 -99 000 000 -99 -99 -99 -99 -99 -99 -99 000 000 000 000 000 000 -99 -99 -99 -99 000 000 -99 000 000 -99 -99 -99 -99
000 000 -99 000 000 -99 -99 -99 -99 -99 -99 000 000 000 000 000 000 -99 -99 -99 -99 -99 000 000 -99 -99 000 -99 -99 -99 -99
000 000 -99 -99 -99 -99 -99 -99 -99 -99 000 000 000 000 000 -99 -99 -99 -99 -99 -99 -99 000 -99 -99 -99 -99 -99 -99 -99 -99
-99 000 -99 -99 -99 -99 -99 -99 -99 000 -99 000 000 000 000 -99 -99 -99 -99 000 -99 -99 -99 -99 -99 000 -99 -99 -99 -99 -99
000 -99 -99 -99 -99 -99 -99 -99 -99 -99 -99 000 000 -99 000 000 -99 -99 000 000 -99 000 -99 -99 000 000 -99 -99 -99 -99 -99
000 000 -99 -99 -99 -99 -99 -99 -99 -99 -99 000 000 -99 000 -99 -99 -99 000 -99 -99 000 -99 000 000 -99 -99 -99 -99 -99 -99
000 -99 -99 -99 -99 -99 -99 -99 -99 -99 -99 000 -99 -99 000 000 -99 000 000 000 000 000 000 000 000 -99 -99 -99 -99 -99 000
-99 -99 -99 -99 -99 -99 -99 -99 -99 -99 -99 -99 -99 -99 000 -99 -99 000 000 000 000 000 000 000 -99 -99 -99 -99 -99 -99 -99
-99 -99 -99 -99 -99 -99 -99 -99 -99 -99 -99 -99 -99 000 000 000 -99 000 000 -99 000 000 000 -99 -99 000 -99 000 000 -99 -99
-99 -99 000 000 -99 -99 -99 -99 -99 -99 -99 -99 -99 000 000 -99 -99 000 000 -99 -99 000 -99 -99 000 000 -99 000 -99 -99 -99
000 000 000 000 -99 -99 -99 -99 -99 000 -99 -99 -99 -99 -99 -99 000 000 000 -99 000 -99 -99 -99 000 000 -99 -99 -99 -99 -99
000 000 000 000 -99 -99 -99 -99 000 000 -99 -99 -99 -99 -99 -99 000 000 -99 -99 000 -99 -99 -99 -99 000 000 -99 -99 -99 -99
001 001 000 000 -99 -99 -99 -99 000 -99 -99 -99 -99 -99 -99 -99 -99 000 -99 -99 000 -99 -99 -99 000 000 -99 -99 -99 -99 -99
000 001 -99 000 -99 -99 -99 -99 -99 -99 -99 -99 -99 -99 -99 -99 -99 -99 -99 -99 000 -99 -99 -99 000 -99 -99 -99 -99 -99 -99
000 -99 000 -99 -99 -99 -99 -99 -99 -99 -99 -99 -99 -99 -99 -99 -99 -99 -99 -99 -99 -99 -99 -99 -99 -99 -99 -99 -99 -99 -99
-99 -99 -99 -99 -99 -99 -99 -99 -99 -99 -99 -99 -99 -99 -99 -99 -99 -99 -99 -99 -99 -99 -99 -99 -99 -99 -99 -99 -99 -99 -99
